c "521430.clq"
p edge 100 1344
e 1 17
e 1 18
e 1 19
e 1 20
e 1 21
e 1 22
e 1 24
e 1 26
e 1 29
e 1 31
e 1 32
e 1 33
e 1 36
e 1 40
e 1 41
e 1 43
e 1 47
e 1 49
e 1 50
e 1 57
e 1 60
e 1 61
e 1 63
e 1 65
e 1 68
e 1 74
e 1 75
e 1 77
e 1 83
e 1 89
e 1 90
e 1 96
e 1 98
e 2 17
e 2 18
e 2 19
e 2 20
e 2 22
e 2 23
e 2 25
e 2 26
e 2 29
e 2 31
e 2 33
e 2 42
e 2 44
e 2 53
e 2 56
e 2 73
e 2 90
e 2 92
e 3 17
e 3 18
e 3 21
e 3 24
e 3 25
e 3 27
e 3 37
e 3 38
e 3 41
e 3 44
e 3 51
e 3 58
e 3 77
e 4 17
e 4 18
e 4 19
e 4 20
e 4 21
e 4 27
e 4 30
e 4 31
e 4 33
e 4 37
e 4 40
e 4 45
e 4 46
e 4 57
e 4 59
e 4 83
e 4 86
e 4 89
e 5 17
e 5 18
e 5 19
e 5 20
e 5 21
e 5 22
e 5 23
e 5 24
e 5 25
e 5 26
e 5 27
e 5 28
e 5 29
e 5 30
e 5 33
e 5 34
e 5 35
e 5 38
e 5 39
e 5 41
e 5 45
e 5 55
e 5 60
e 5 62
e 5 75
e 5 83
e 5 86
e 5 93
e 6 17
e 6 18
e 6 19
e 6 20
e 6 21
e 6 22
e 6 23
e 6 24
e 6 25
e 6 29
e 6 30
e 6 32
e 6 34
e 6 38
e 6 42
e 6 44
e 6 45
e 6 57
e 6 59
e 6 67
e 6 84
e 6 85
e 6 86
e 6 87
e 6 88
e 6 97
e 7 17
e 7 18
e 7 19
e 7 20
e 7 21
e 7 22
e 7 25
e 7 27
e 7 31
e 7 36
e 7 40
e 7 43
e 7 52
e 7 58
e 7 61
e 7 65
e 7 70
e 7 94
e 7 99
e 8 17
e 8 18
e 8 19
e 8 20
e 8 21
e 8 22
e 8 23
e 8 24
e 8 25
e 8 26
e 8 27
e 8 28
e 8 30
e 8 34
e 8 35
e 8 37
e 8 38
e 8 39
e 8 40
e 8 41
e 8 42
e 8 43
e 8 47
e 8 55
e 8 56
e 8 58
e 8 59
e 8 61
e 8 63
e 8 65
e 8 69
e 8 72
e 8 73
e 8 80
e 8 82
e 8 87
e 8 94
e 8 95
e 8 100
e 9 17
e 9 18
e 9 19
e 9 20
e 9 21
e 9 22
e 9 23
e 9 27
e 9 28
e 9 32
e 9 33
e 9 34
e 9 36
e 9 40
e 9 42
e 9 44
e 9 46
e 9 48
e 9 49
e 9 52
e 9 53
e 9 56
e 9 58
e 9 67
e 9 70
e 9 73
e 9 74
e 9 83
e 9 88
e 10 17
e 10 18
e 10 19
e 10 20
e 10 21
e 10 22
e 10 23
e 10 25
e 10 26
e 10 27
e 10 28
e 10 30
e 10 33
e 10 37
e 10 39
e 10 40
e 10 42
e 10 46
e 10 50
e 10 63
e 10 71
e 10 76
e 10 83
e 10 85
e 10 94
e 11 17
e 11 18
e 11 19
e 11 20
e 11 23
e 11 24
e 11 26
e 11 29
e 11 31
e 11 32
e 11 36
e 11 39
e 11 40
e 11 41
e 11 43
e 11 45
e 11 47
e 11 53
e 11 54
e 11 57
e 11 67
e 11 69
e 11 75
e 11 79
e 11 85
e 11 86
e 11 87
e 11 89
e 12 17
e 12 18
e 12 19
e 12 20
e 12 21
e 12 22
e 12 23
e 12 26
e 12 29
e 12 38
e 12 53
e 12 55
e 12 58
e 12 63
e 12 68
e 12 69
e 12 82
e 12 84
e 12 99
e 13 17
e 13 24
e 13 26
e 13 27
e 13 29
e 13 35
e 13 43
e 13 47
e 13 52
e 13 54
e 13 59
e 13 60
e 13 63
e 13 65
e 13 68
e 13 70
e 13 72
e 13 76
e 13 84
e 13 88
e 14 17
e 14 18
e 14 19
e 14 20
e 14 21
e 14 22
e 14 23
e 14 24
e 14 25
e 14 27
e 14 28
e 14 30
e 14 33
e 14 36
e 14 38
e 14 40
e 14 41
e 14 42
e 14 43
e 14 44
e 14 45
e 14 49
e 14 59
e 14 61
e 14 73
e 14 80
e 14 83
e 14 92
e 14 95
e 14 97
e 14 99
e 15 17
e 15 18
e 15 19
e 15 20
e 15 22
e 15 23
e 15 26
e 15 27
e 15 32
e 15 33
e 15 34
e 15 35
e 15 36
e 15 45
e 15 47
e 15 56
e 15 60
e 15 62
e 15 63
e 15 64
e 15 66
e 15 72
e 15 74
e 15 76
e 15 90
e 15 91
e 16 17
e 16 18
e 16 19
e 16 21
e 16 24
e 16 25
e 16 37
e 16 46
e 16 49
e 16 61
e 16 63
e 16 66
e 16 71
e 16 78
e 16 79
e 16 81
e 16 96
e 17 18
e 17 19
e 17 20
e 17 21
e 17 22
e 17 23
e 17 24
e 17 25
e 17 27
e 17 28
e 17 29
e 17 31
e 17 32
e 17 33
e 17 34
e 17 35
e 17 36
e 17 38
e 17 39
e 17 40
e 17 41
e 17 43
e 17 44
e 17 46
e 17 47
e 17 48
e 17 50
e 17 51
e 17 52
e 17 53
e 17 54
e 17 56
e 17 57
e 17 61
e 17 64
e 17 66
e 17 68
e 17 69
e 17 70
e 17 71
e 17 72
e 17 76
e 17 83
e 17 87
e 17 89
e 17 91
e 17 93
e 17 96
e 18 19
e 18 20
e 18 21
e 18 22
e 18 23
e 18 24
e 18 26
e 18 28
e 18 29
e 18 30
e 18 31
e 18 32
e 18 34
e 18 36
e 18 37
e 18 39
e 18 40
e 18 41
e 18 42
e 18 46
e 18 51
e 18 53
e 18 54
e 18 57
e 18 62
e 18 64
e 18 70
e 18 73
e 18 84
e 18 86
e 19 20
e 19 21
e 19 22
e 19 23
e 19 24
e 19 25
e 19 26
e 19 27
e 19 28
e 19 30
e 19 31
e 19 32
e 19 34
e 19 35
e 19 37
e 19 39
e 19 40
e 19 43
e 19 44
e 19 45
e 19 46
e 19 47
e 19 48
e 19 50
e 19 54
e 19 55
e 19 57
e 19 60
e 19 61
e 19 63
e 19 66
e 19 71
e 19 74
e 19 76
e 19 77
e 19 83
e 19 87
e 19 95
e 19 98
e 19 100
e 20 21
e 20 22
e 20 23
e 20 24
e 20 25
e 20 26
e 20 27
e 20 28
e 20 29
e 20 30
e 20 31
e 20 33
e 20 34
e 20 35
e 20 36
e 20 37
e 20 38
e 20 39
e 20 42
e 20 43
e 20 44
e 20 45
e 20 46
e 20 48
e 20 49
e 20 51
e 20 61
e 20 62
e 20 63
e 20 67
e 20 69
e 20 70
e 20 71
e 20 80
e 20 81
e 20 82
e 20 84
e 20 85
e 20 88
e 20 100
e 21 22
e 21 23
e 21 24
e 21 25
e 21 26
e 21 27
e 21 28
e 21 29
e 21 30
e 21 31
e 21 32
e 21 35
e 21 37
e 21 38
e 21 39
e 21 40
e 21 43
e 21 44
e 21 47
e 21 49
e 21 50
e 21 51
e 21 53
e 21 54
e 21 55
e 21 56
e 21 57
e 21 59
e 21 62
e 21 69
e 21 70
e 21 71
e 21 73
e 21 75
e 21 76
e 21 78
e 21 79
e 21 84
e 21 86
e 21 90
e 21 92
e 21 96
e 21 98
e 22 23
e 22 24
e 22 25
e 22 26
e 22 27
e 22 28
e 22 29
e 22 31
e 22 32
e 22 34
e 22 35
e 22 36
e 22 37
e 22 38
e 22 42
e 22 44
e 22 45
e 22 48
e 22 49
e 22 50
e 22 52
e 22 54
e 22 56
e 22 57
e 22 64
e 22 65
e 22 66
e 22 67
e 22 68
e 22 72
e 22 73
e 22 77
e 22 83
e 22 86
e 22 87
e 22 88
e 22 89
e 22 99
e 23 24
e 23 25
e 23 26
e 23 27
e 23 28
e 23 29
e 23 31
e 23 33
e 23 34
e 23 39
e 23 40
e 23 41
e 23 42
e 23 43
e 23 44
e 23 48
e 23 50
e 23 51
e 23 52
e 23 53
e 23 55
e 23 56
e 23 57
e 23 58
e 23 59
e 23 65
e 23 66
e 23 68
e 23 69
e 23 70
e 23 72
e 23 73
e 23 75
e 23 78
e 23 81
e 23 84
e 23 85
e 23 87
e 23 89
e 23 91
e 23 94
e 23 96
e 23 100
e 24 25
e 24 26
e 24 28
e 24 29
e 24 30
e 24 31
e 24 32
e 24 33
e 24 35
e 24 36
e 24 39
e 24 41
e 24 45
e 24 46
e 24 48
e 24 49
e 24 51
e 24 60
e 24 63
e 24 64
e 24 66
e 24 71
e 24 72
e 24 73
e 24 74
e 24 75
e 24 76
e 24 81
e 24 82
e 24 92
e 24 94
e 24 96
e 24 97
e 24 99
e 25 28
e 25 29
e 25 30
e 25 31
e 25 32
e 25 33
e 25 38
e 25 39
e 25 42
e 25 43
e 25 45
e 25 48
e 25 51
e 25 52
e 25 55
e 25 56
e 25 59
e 25 60
e 25 64
e 25 66
e 25 68
e 25 69
e 25 76
e 25 78
e 25 79
e 25 89
e 25 91
e 25 92
e 25 93
e 25 96
e 25 97
e 25 98
e 25 99
e 26 28
e 26 29
e 26 30
e 26 32
e 26 34
e 26 35
e 26 36
e 26 49
e 26 52
e 26 54
e 26 56
e 26 57
e 26 63
e 26 65
e 26 66
e 26 67
e 26 68
e 26 72
e 26 73
e 26 74
e 26 80
e 26 81
e 26 86
e 26 92
e 26 97
e 26 98
e 26 100
e 27 28
e 27 30
e 27 31
e 27 32
e 27 33
e 27 34
e 27 36
e 27 37
e 27 38
e 27 39
e 27 40
e 27 41
e 27 42
e 27 43
e 27 44
e 27 46
e 27 47
e 27 48
e 27 49
e 27 51
e 27 52
e 27 53
e 27 54
e 27 56
e 27 59
e 27 60
e 27 62
e 27 64
e 27 66
e 27 71
e 27 73
e 27 74
e 27 75
e 27 76
e 27 83
e 27 88
e 27 90
e 27 91
e 27 92
e 27 95
e 27 99
e 27 100
e 28 30
e 28 34
e 28 36
e 28 50
e 28 52
e 28 53
e 28 54
e 28 55
e 28 58
e 28 62
e 28 66
e 28 68
e 28 89
e 28 90
e 29 30
e 29 31
e 29 35
e 29 41
e 29 42
e 29 43
e 29 44
e 29 48
e 29 50
e 29 51
e 29 53
e 29 58
e 29 62
e 29 64
e 29 65
e 29 66
e 29 70
e 29 73
e 29 75
e 29 76
e 29 77
e 29 86
e 29 87
e 29 89
e 29 91
e 29 94
e 29 95
e 30 32
e 30 33
e 30 35
e 30 37
e 30 38
e 30 39
e 30 40
e 30 42
e 30 43
e 30 47
e 30 48
e 30 49
e 30 52
e 30 54
e 30 55
e 30 58
e 30 60
e 30 69
e 30 72
e 30 74
e 30 75
e 30 77
e 30 78
e 30 81
e 30 83
e 30 85
e 30 88
e 30 91
e 30 92
e 30 98
e 31 32
e 31 33
e 31 34
e 31 35
e 31 37
e 31 38
e 31 41
e 31 44
e 31 46
e 31 47
e 31 51
e 31 58
e 31 61
e 31 63
e 31 69
e 31 70
e 31 72
e 31 76
e 31 78
e 31 79
e 31 83
e 31 87
e 31 88
e 31 93
e 32 35
e 32 36
e 32 37
e 32 41
e 32 45
e 32 48
e 32 52
e 32 53
e 32 56
e 32 60
e 32 64
e 32 75
e 32 82
e 32 93
e 32 97
e 32 100
e 33 34
e 33 35
e 33 42
e 33 49
e 33 50
e 33 59
e 33 61
e 33 65
e 33 68
e 33 69
e 33 74
e 33 79
e 33 80
e 33 86
e 33 88
e 33 97
e 33 100
e 34 36
e 34 37
e 34 43
e 34 44
e 34 46
e 34 47
e 34 49
e 34 50
e 34 53
e 34 58
e 34 61
e 34 62
e 34 74
e 34 80
e 34 81
e 34 82
e 34 85
e 34 87
e 34 98
e 34 99
e 34 100
e 35 37
e 35 38
e 35 39
e 35 42
e 35 45
e 35 47
e 35 49
e 35 50
e 35 52
e 35 54
e 35 61
e 35 64
e 35 68
e 35 76
e 35 78
e 35 80
e 35 82
e 35 86
e 35 90
e 35 93
e 36 45
e 36 47
e 36 51
e 36 57
e 36 61
e 36 64
e 36 65
e 36 67
e 36 69
e 36 70
e 36 72
e 36 75
e 36 77
e 36 78
e 36 82
e 36 85
e 36 89
e 37 38
e 37 41
e 37 46
e 37 48
e 37 51
e 37 58
e 37 62
e 37 63
e 37 67
e 37 73
e 37 77
e 37 78
e 37 79
e 37 91
e 38 39
e 38 40
e 38 45
e 38 46
e 38 48
e 38 52
e 38 55
e 38 59
e 38 72
e 38 73
e 38 78
e 38 83
e 38 86
e 38 88
e 38 90
e 38 91
e 38 93
e 38 94
e 38 95
e 38 97
e 39 45
e 39 50
e 39 59
e 39 60
e 39 66
e 39 68
e 39 72
e 39 80
e 39 81
e 39 94
e 40 41
e 40 44
e 40 46
e 40 47
e 40 62
e 40 81
e 40 85
e 40 86
e 40 95
e 41 50
e 41 51
e 41 56
e 41 60
e 41 61
e 41 67
e 41 68
e 41 77
e 41 84
e 41 85
e 41 91
e 41 92
e 41 95
e 41 100
e 42 53
e 42 58
e 42 60
e 42 74
e 42 81
e 42 91
e 42 99
e 43 47
e 43 49
e 43 51
e 43 54
e 43 55
e 43 59
e 43 60
e 43 61
e 43 62
e 43 65
e 43 67
e 43 74
e 43 78
e 43 79
e 43 84
e 43 87
e 43 88
e 43 89
e 44 56
e 44 68
e 44 70
e 44 81
e 45 46
e 45 50
e 45 51
e 45 55
e 45 61
e 45 62
e 45 70
e 45 77
e 45 86
e 45 88
e 45 89
e 45 95
e 45 97
e 45 98
e 46 48
e 46 52
e 46 55
e 46 57
e 46 67
e 46 69
e 46 71
e 46 73
e 46 79
e 46 81
e 46 82
e 46 85
e 46 88
e 46 95
e 47 48
e 47 49
e 47 50
e 47 53
e 47 56
e 47 60
e 47 62
e 47 63
e 47 64
e 47 69
e 47 74
e 47 89
e 47 90
e 47 92
e 47 93
e 47 94
e 47 97
e 48 52
e 48 58
e 48 59
e 48 67
e 48 77
e 48 90
e 48 91
e 48 95
e 49 57
e 49 64
e 49 65
e 49 72
e 49 75
e 49 80
e 49 82
e 50 54
e 50 55
e 50 60
e 50 75
e 50 90
e 51 54
e 51 55
e 51 56
e 51 57
e 51 62
e 51 65
e 51 66
e 51 76
e 51 77
e 51 79
e 51 82
e 51 85
e 51 89
e 51 93
e 51 96
e 51 97
e 52 53
e 52 54
e 52 71
e 52 79
e 52 86
e 52 87
e 52 89
e 52 91
e 53 55
e 53 65
e 53 68
e 53 77
e 53 79
e 53 93
e 53 96
e 53 97
e 54 57
e 54 59
e 54 65
e 54 66
e 54 71
e 54 82
e 54 92
e 54 98
e 55 59
e 55 67
e 55 68
e 55 80
e 55 84
e 55 87
e 55 91
e 56 58
e 56 63
e 56 67
e 56 70
e 56 77
e 56 78
e 56 79
e 56 87
e 56 91
e 57 58
e 57 64
e 57 67
e 57 69
e 57 78
e 57 80
e 57 83
e 57 84
e 57 96
e 57 99
e 58 62
e 58 63
e 58 84
e 58 94
e 58 100
e 59 69
e 59 70
e 59 71
e 59 80
e 59 92
e 59 99
e 60 64
e 60 79
e 60 82
e 60 92
e 61 65
e 61 79
e 61 92
e 62 64
e 62 71
e 62 72
e 62 73
e 62 75
e 62 79
e 62 92
e 62 94
e 62 98
e 62 100
e 63 74
e 63 78
e 63 80
e 63 84
e 63 85
e 63 86
e 63 95
e 63 96
e 63 97
e 64 67
e 64 71
e 64 75
e 64 87
e 64 88
e 64 93
e 65 66
e 66 71
e 66 80
e 66 85
e 66 93
e 66 98
e 67 76
e 67 80
e 67 82
e 67 83
e 68 72
e 68 76
e 68 82
e 68 90
e 68 91
e 68 95
e 68 98
e 69 70
e 69 90
e 69 93
e 69 100
e 70 71
e 70 74
e 70 78
e 70 81
e 70 85
e 70 89
e 70 93
e 70 95
e 71 74
e 71 76
e 72 77
e 72 78
e 72 81
e 72 83
e 72 90
e 72 92
e 72 94
e 72 96
e 72 100
e 73 75
e 73 80
e 73 81
e 73 84
e 73 96
e 74 99
e 75 77
e 75 90
e 75 93
e 75 98
e 76 94
e 76 95
e 78 82
e 78 85
e 78 88
e 78 94
e 78 97
e 78 99
e 79 99
e 79 100
e 80 81
e 80 90
e 82 84
e 82 93
e 82 98
e 83 84
e 83 95
e 83 97
e 83 98
e 83 99
e 84 87
e 86 96
e 87 88
e 87 94
e 87 96
e 87 100
e 88 98
e 90 99
e 91 94
e 91 96
e 91 97
